NAME Sudoku Problem
ROWS
 N  OBJ
 E  R0      
 E  R1      
 E  R2      
 E  R3      
COLUMNS
    MARKER    'MARKER'                 'INTORG'
    x_1_1     R0        1
    x_1_1     R1        1
    x_1_1     R2        1
    x_1_1     R3        1
    MARKER    'MARKER'                 'INTEND'
RHS
BOUNDS
 BV BND1      x_1_1   
ENDATA
